db/data/312641570137212706134723562038015106.z3.out
sat
-------------------
1527.176041083
